c File: flat50_3_0.col
c
c SOURCE: Joseph Culberson (joe@cs.ualberta.ca)
c DESCRIPTION: Quasi-random coloring problem
c              generated with flatness = 0
c                             probability = 0.139
c                             known coloring = 3
c                             random seed = 1571
c              Creation Date:  Tue Jun  9 12:12:33 1998
c Maximum degree = 8 Minimum degree = 1
c p edge 50 115
c cnf created by edge2cnf
p cnf 150 545
-1 -2 0
-1 -3 0
-2 -3 0
1 2 3 0
-4 -5 0
-4 -6 0
-5 -6 0
4 5 6 0
-7 -8 0
-7 -9 0
-8 -9 0
7 8 9 0
-10 -11 0
-10 -12 0
-11 -12 0
10 11 12 0
-13 -14 0
-13 -15 0
-14 -15 0
13 14 15 0
-16 -17 0
-16 -18 0
-17 -18 0
16 17 18 0
-19 -20 0
-19 -21 0
-20 -21 0
19 20 21 0
-22 -23 0
-22 -24 0
-23 -24 0
22 23 24 0
-25 -26 0
-25 -27 0
-26 -27 0
25 26 27 0
-28 -29 0
-28 -30 0
-29 -30 0
28 29 30 0
-31 -32 0
-31 -33 0
-32 -33 0
31 32 33 0
-34 -35 0
-34 -36 0
-35 -36 0
34 35 36 0
-37 -38 0
-37 -39 0
-38 -39 0
37 38 39 0
-40 -41 0
-40 -42 0
-41 -42 0
40 41 42 0
-43 -44 0
-43 -45 0
-44 -45 0
43 44 45 0
-46 -47 0
-46 -48 0
-47 -48 0
46 47 48 0
-49 -50 0
-49 -51 0
-50 -51 0
49 50 51 0
-52 -53 0
-52 -54 0
-53 -54 0
52 53 54 0
-55 -56 0
-55 -57 0
-56 -57 0
55 56 57 0
-58 -59 0
-58 -60 0
-59 -60 0
58 59 60 0
-61 -62 0
-61 -63 0
-62 -63 0
61 62 63 0
-64 -65 0
-64 -66 0
-65 -66 0
64 65 66 0
-67 -68 0
-67 -69 0
-68 -69 0
67 68 69 0
-70 -71 0
-70 -72 0
-71 -72 0
70 71 72 0
-73 -74 0
-73 -75 0
-74 -75 0
73 74 75 0
-76 -77 0
-76 -78 0
-77 -78 0
76 77 78 0
-79 -80 0
-79 -81 0
-80 -81 0
79 80 81 0
-82 -83 0
-82 -84 0
-83 -84 0
82 83 84 0
-85 -86 0
-85 -87 0
-86 -87 0
85 86 87 0
-88 -89 0
-88 -90 0
-89 -90 0
88 89 90 0
-91 -92 0
-91 -93 0
-92 -93 0
91 92 93 0
-94 -95 0
-94 -96 0
-95 -96 0
94 95 96 0
-97 -98 0
-97 -99 0
-98 -99 0
97 98 99 0
-100 -101 0
-100 -102 0
-101 -102 0
100 101 102 0
-103 -104 0
-103 -105 0
-104 -105 0
103 104 105 0
-106 -107 0
-106 -108 0
-107 -108 0
106 107 108 0
-109 -110 0
-109 -111 0
-110 -111 0
109 110 111 0
-112 -113 0
-112 -114 0
-113 -114 0
112 113 114 0
-115 -116 0
-115 -117 0
-116 -117 0
115 116 117 0
-118 -119 0
-118 -120 0
-119 -120 0
118 119 120 0
-121 -122 0
-121 -123 0
-122 -123 0
121 122 123 0
-124 -125 0
-124 -126 0
-125 -126 0
124 125 126 0
-127 -128 0
-127 -129 0
-128 -129 0
127 128 129 0
-130 -131 0
-130 -132 0
-131 -132 0
130 131 132 0
-133 -134 0
-133 -135 0
-134 -135 0
133 134 135 0
-136 -137 0
-136 -138 0
-137 -138 0
136 137 138 0
-139 -140 0
-139 -141 0
-140 -141 0
139 140 141 0
-142 -143 0
-142 -144 0
-143 -144 0
142 143 144 0
-145 -146 0
-145 -147 0
-146 -147 0
145 146 147 0
-148 -149 0
-148 -150 0
-149 -150 0
148 149 150 0
-70 -1 0
-71 -2 0
-72 -3 0
-76 -1 0
-77 -2 0
-78 -3 0
-82 -1 0
-83 -2 0
-84 -3 0
-100 -1 0
-101 -2 0
-102 -3 0
-103 -1 0
-104 -2 0
-105 -3 0
-61 -4 0
-62 -5 0
-63 -6 0
-76 -4 0
-77 -5 0
-78 -6 0
-103 -4 0
-104 -5 0
-105 -6 0
-124 -4 0
-125 -5 0
-126 -6 0
-130 -4 0
-131 -5 0
-132 -6 0
-58 -7 0
-59 -8 0
-60 -9 0
-73 -7 0
-74 -8 0
-75 -9 0
-70 -10 0
-71 -11 0
-72 -12 0
-133 -10 0
-134 -11 0
-135 -12 0
-139 -10 0
-140 -11 0
-141 -12 0
-91 -13 0
-92 -14 0
-93 -15 0
-97 -13 0
-98 -14 0
-99 -15 0
-124 -13 0
-125 -14 0
-126 -15 0
-130 -13 0
-131 -14 0
-132 -15 0
-142 -13 0
-143 -14 0
-144 -15 0
-148 -13 0
-149 -14 0
-150 -15 0
-100 -16 0
-101 -17 0
-102 -18 0
-118 -16 0
-119 -17 0
-120 -18 0
-124 -16 0
-125 -17 0
-126 -18 0
-103 -19 0
-104 -20 0
-105 -21 0
-112 -19 0
-113 -20 0
-114 -21 0
-148 -19 0
-149 -20 0
-150 -21 0
-64 -22 0
-65 -23 0
-66 -24 0
-100 -22 0
-101 -23 0
-102 -24 0
-109 -22 0
-110 -23 0
-111 -24 0
-121 -22 0
-122 -23 0
-123 -24 0
-82 -25 0
-83 -26 0
-84 -27 0
-91 -25 0
-92 -26 0
-93 -27 0
-106 -25 0
-107 -26 0
-108 -27 0
-55 -28 0
-56 -29 0
-57 -30 0
-61 -28 0
-62 -29 0
-63 -30 0
-130 -28 0
-131 -29 0
-132 -30 0
-52 -31 0
-53 -32 0
-54 -33 0
-64 -31 0
-65 -32 0
-66 -33 0
-79 -31 0
-80 -32 0
-81 -33 0
-85 -31 0
-86 -32 0
-87 -33 0
-127 -31 0
-128 -32 0
-129 -33 0
-142 -31 0
-143 -32 0
-144 -33 0
-148 -31 0
-149 -32 0
-150 -33 0
-70 -34 0
-71 -35 0
-72 -36 0
-76 -34 0
-77 -35 0
-78 -36 0
-85 -34 0
-86 -35 0
-87 -36 0
-133 -34 0
-134 -35 0
-135 -36 0
-55 -37 0
-56 -38 0
-57 -39 0
-70 -37 0
-71 -38 0
-72 -39 0
-94 -37 0
-95 -38 0
-96 -39 0
-106 -37 0
-107 -38 0
-108 -39 0
-109 -37 0
-110 -38 0
-111 -39 0
-133 -37 0
-134 -38 0
-135 -39 0
-136 -37 0
-137 -38 0
-138 -39 0
-55 -40 0
-56 -41 0
-57 -42 0
-88 -40 0
-89 -41 0
-90 -42 0
-118 -40 0
-119 -41 0
-120 -42 0
-145 -40 0
-146 -41 0
-147 -42 0
-52 -43 0
-53 -44 0
-54 -45 0
-55 -43 0
-56 -44 0
-57 -45 0
-79 -43 0
-80 -44 0
-81 -45 0
-103 -43 0
-104 -44 0
-105 -45 0
-139 -43 0
-140 -44 0
-141 -45 0
-148 -43 0
-149 -44 0
-150 -45 0
-64 -46 0
-65 -47 0
-66 -48 0
-82 -46 0
-83 -47 0
-84 -48 0
-85 -46 0
-86 -47 0
-87 -48 0
-97 -46 0
-98 -47 0
-99 -48 0
-124 -46 0
-125 -47 0
-126 -48 0
-133 -46 0
-134 -47 0
-135 -48 0
-136 -46 0
-137 -47 0
-138 -48 0
-58 -49 0
-59 -50 0
-60 -51 0
-61 -49 0
-62 -50 0
-63 -51 0
-94 -49 0
-95 -50 0
-96 -51 0
-106 -49 0
-107 -50 0
-108 -51 0
-139 -49 0
-140 -50 0
-141 -51 0
-106 -52 0
-107 -53 0
-108 -54 0
-109 -52 0
-110 -53 0
-111 -54 0
-124 -55 0
-125 -56 0
-126 -57 0
-130 -55 0
-131 -56 0
-132 -57 0
-139 -55 0
-140 -56 0
-141 -57 0
-121 -58 0
-122 -59 0
-123 -60 0
-145 -58 0
-146 -59 0
-147 -60 0
-106 -61 0
-107 -62 0
-108 -63 0
-136 -61 0
-137 -62 0
-138 -63 0
-103 -64 0
-104 -65 0
-105 -66 0
-115 -67 0
-116 -68 0
-117 -69 0
-148 -67 0
-149 -68 0
-150 -69 0
-103 -70 0
-104 -71 0
-105 -72 0
-106 -70 0
-107 -71 0
-108 -72 0
-115 -76 0
-116 -77 0
-117 -78 0
-142 -76 0
-143 -77 0
-144 -78 0
-106 -79 0
-107 -80 0
-108 -81 0
-112 -79 0
-113 -80 0
-114 -81 0
-133 -79 0
-134 -80 0
-135 -81 0
-121 -82 0
-122 -83 0
-123 -84 0
-133 -82 0
-134 -83 0
-135 -84 0
-112 -85 0
-113 -86 0
-114 -87 0
-133 -85 0
-134 -86 0
-135 -87 0
-118 -88 0
-119 -89 0
-120 -90 0
-124 -88 0
-125 -89 0
-126 -90 0
-142 -88 0
-143 -89 0
-144 -90 0
-118 -91 0
-119 -92 0
-120 -93 0
-145 -91 0
-146 -92 0
-147 -93 0
-127 -94 0
-128 -95 0
-129 -96 0
-133 -94 0
-134 -95 0
-135 -96 0
-118 -97 0
-119 -98 0
-120 -99 0
-130 -97 0
-131 -98 0
-132 -99 0
-142 -97 0
-143 -98 0
-144 -99 0
-148 -97 0
-149 -98 0
-150 -99 0
-115 -100 0
-116 -101 0
-117 -102 0
-118 -100 0
-119 -101 0
-120 -102 0
-142 -100 0
-143 -101 0
-144 -102 0
-145 -100 0
-146 -101 0
-147 -102 0
